objective value:                                  -10
t_n_4                                               1 	(obj:-1)
t_n_232                                             1 	(obj:-1)
t_n_264                                             1 	(obj:-1)
t_n_315                                             1 	(obj:-1)
t_n_551                                             1 	(obj:-1)
t_n_587                                             1 	(obj:-1)
t_n_636                                             1 	(obj:-1)
t_n_696                                             1 	(obj:-1)
t_n_791                                             1 	(obj:-1)
t_n_876                                             1 	(obj:-1)
